
Gurobi 9.0.1 (linux64) logging started Thu Apr 30 15:06:17 2020

Gurobi Optimizer version 9.0.1 build v9.0.1rc0 (linux64)
Optimize a model with 11327 rows, 12060 columns and 198990 nonzeros
Model fingerprint: 0x2626c12f
Variable types: 0 continuous, 12060 integer (12032 binary)
Coefficient statistics:
  Matrix range     [1e+00, 1e+01]
  Objective range  [1e+00, 1e+02]
  Bounds range     [1e+00, 1e+00]
  RHS range        [1e+00, 1e+00]

User MIP start produced solution with objective 980 (0.21s)
Loaded user MIP start with objective 980

Presolve removed 928 rows and 1887 columns
Presolve time: 2.33s
Presolved: 10399 rows, 10173 columns, 162246 nonzeros
Variable types: 0 continuous, 10173 integer (10147 binary)

Root simplex log...

Iteration    Objective       Primal Inf.    Dual Inf.      Time
    4114    4.5269857e+02   1.496862e+03   0.000000e+00      5s
    6974    4.6427399e+02   6.983787e+02   0.000000e+00     10s
    8989    4.6454427e+02   7.548166e+02   0.000000e+00     15s
   10998    4.6497119e+02   2.102678e+02   0.000000e+00     20s
   12613    4.6503240e+02   1.702504e+03   0.000000e+00     25s
   14368    4.6512664e+02   1.535620e+02   0.000000e+00     30s
   16050    4.6513863e+02   1.131616e+01   0.000000e+00     35s
   16478    4.6514102e+02   0.000000e+00   0.000000e+00     37s

Root relaxation: objective 4.651410e+02, 16478 iterations, 33.78 seconds

    Nodes    |    Current Node    |     Objective Bounds      |     Work
 Expl Unexpl |  Obj  Depth IntInf | Incumbent    BestBd   Gap | It/Node Time

     0     0  465.14102    0 3513  980.00000  465.14102  52.5%     -   40s
     0     0  478.92694    0 3522  980.00000  478.92694  51.1%     -  118s
     0     0  479.78066    0 3459  980.00000  479.78066  51.0%     -  142s
     0     0  479.78395    0 3444  980.00000  479.78395  51.0%     -  146s
     0     0  479.78397    0 3448  980.00000  479.78397  51.0%     -  146s
     0     0  501.70554    0 3427  980.00000  501.70554  48.8%     -  238s
H    0     0                     948.0000000  501.70554  47.1%     -  240s
     0     0  502.53343    0 3408  948.00000  502.53343  47.0%     -  268s
     0     0  502.68077    0 3404  948.00000  502.68077  47.0%     -  280s
     0     0  502.94101    0 3444  948.00000  502.94101  46.9%     -  298s
     0     0  502.94907    0 3454  948.00000  502.94907  46.9%     -  303s
     0     0  518.68881    0 3413  948.00000  518.68881  45.3%     -  535s
     0     0  525.94080    0 3521  948.00000  525.94080  44.5%     -  606s
     0     0  525.96309    0 3515  948.00000  525.96309  44.5%     -  630s
     0     0  525.96675    0 3519  948.00000  525.96675  44.5%     -  638s
     0     0  530.67843    0 3445  948.00000  530.67843  44.0%     -  767s
     0     0  531.10096    0 3443  948.00000  531.10096  44.0%     -  811s
     0     0  531.11545    0 3471  948.00000  531.11545  44.0%     -  830s
     0     0  531.84785    0 3531  948.00000  531.84785  43.9%     -  972s
     0     0  531.91393    0 3520  948.00000  531.91393  43.9%     - 1024s
     0     0  531.92965    0 3556  948.00000  531.92965  43.9%     - 1049s
     0     0  533.40335    0 3466  948.00000  533.40335  43.7%     - 1210s
     0     0  533.63752    0 3506  948.00000  533.63752  43.7%     - 1268s
     0     0  533.65885    0 3513  948.00000  533.65885  43.7%     - 1289s
     0     0  534.70250    0 3561  948.00000  534.70250  43.6%     - 1458s
     0     0  534.82046    0 3602  948.00000  534.82046  43.6%     - 1559s
     0     0  534.85568    0 3609  948.00000  534.85568  43.6%     - 1599s
     0     0  534.86192    0 3613  948.00000  534.86192  43.6%     - 1617s
     0     0  535.18009    0 3625  948.00000  535.18009  43.5%     - 1717s
     0     0  535.23809    0 3582  948.00000  535.23809  43.5%     - 1760s
     0     0  535.25751    0 3614  948.00000  535.25751  43.5%     - 1791s
     0     0  536.72524    0 3421  948.00000  536.72524  43.4%     - 1931s
     0     0  536.78296    0 3434  948.00000  536.78296  43.4%     - 2000s
     0     0  536.79365    0 3432  948.00000  536.79365  43.4%     - 2025s
     0     0  537.40875    0 3549  948.00000  537.40875  43.3%     - 2134s
     0     0  537.45275    0 3569  948.00000  537.45275  43.3%     - 2182s
     0     0  537.46980    0 3522  948.00000  537.46980  43.3%     - 2213s
     0     0  538.37660    0 3531  948.00000  538.37660  43.2%     - 2355s
     0     0  538.48671    0 3564  948.00000  538.48671  43.2%     - 2410s
     0     0  538.51448    0 3523  948.00000  538.51448  43.2%     - 2441s
     0     0  538.99817    0 3554  948.00000  538.99817  43.1%     - 2555s
     0     0  539.12042    0 3568  948.00000  539.12042  43.1%     - 2638s
     0     0  539.15280    0 3561  948.00000  539.15280  43.1%     - 2688s
     0     0  539.40131    0 3609  948.00000  539.40131  43.1%     - 2784s
     0     0  539.40131    0 3609  948.00000  539.40131  43.1%     - 2804s
     0     2  539.41032    0 3609  948.00000  539.41032  43.1%     - 3068s
     1     3  541.19742    1 3505  948.00000  539.41727  43.1% 64724 3462s

Cutting planes:
  Gomory: 1
  MIR: 79
  StrongCG: 5
  Zero half: 51
  RLT: 2473

Explored 2 nodes (526723 simplex iterations) in 3600.01 seconds
Thread count was 1 (of 40 available processors)

Solution count 2: 948 980 

Time limit reached
Best objective 9.480000000000e+02, best bound 5.400000000000e+02, gap 43.0380%

User-callback calls 26979, time in user-callback 0.08 sec
